c ! encoding i-pc 250
p cnf 364 424
247 -252 0
108 -253 0
14 -254 0
204 -255 0
163 -256 0
257 0
258 -259 0
259 -260 0
-163 -260 0
134 -262 0
263 -264 0
264 -265 0
-134 -265 0
213 -267 0
196 -267 0
268 -269 0
269 -270 0
-196 -270 0
273 -275 0
274 -275 0
266 -276 0
271 -276 0
275 -276 0
70 -277 0
122 -278 0
65 -278 0
273 -279 0
279 -280 0
-65 -280 0
-32 -282 0
-213 -282 0
282 -284 0
283 -284 0
284 -285 0
187 -285 0
274 -286 0
268 -286 0
286 -287 0
-187 -287 0
281 -290 0
288 -290 0
-70 -291 0
293 -294 0
294 -295 0
66 -295 0
-170 -296 0
-66 -296 0
297 -298 0
8 -298 0
170 -299 0
299 -300 0
-8 -300 0
114 -302 0
303 -304 0
304 -305 0
-114 -305 0
307 -308 0
308 -309 0
237 -309 0
-237 -310 0
132 -312 0
313 -314 0
314 -315 0
-132 -315 0
316 -317 0
235 -317 0
318 -319 0
319 -320 0
-235 -320 0
323 -329 0
324 -329 0
325 -329 0
326 -329 0
327 -329 0
328 -329 0
261 -330 0
292 -330 0
301 -330 0
306 -330 0
311 -330 0
321 -330 0
329 -330 0
-204 -331 0
-14 -335 0
-108 -339 0
101 -341 0
-101 -342 0
90 -345 0
-90 -346 0
104 -349 0
-104 -350 0
234 -352 0
-234 -353 0
200 -355 0
-200 -356 0
147 -358 0
-147 -359 0
-247 -363 0
-1 0
2 0
3 0
4 0
-5 0
-6 0
-7 0
9 0
10 0
-11 0
12 0
-13 0
15 0
16 0
-17 0
18 0
19 0
20 0
21 0
22 0
-23 0
24 0
25 0
-26 0
27 0
28 0
-29 0
31 0
-33 0
34 0
35 0
-36 0
37 0
-38 0
-39 0
40 0
-41 0
42 0
-43 0
-44 0
45 0
46 0
47 0
-48 0
49 0
50 0
-51 0
52 0
53 0
54 0
55 0
56 0
57 0
58 0
59 0
60 0
61 0
-62 0
-63 0
67 0
-69 0
-71 0
-72 0
73 0
74 0
-77 0
-78 0
-79 0
-80 0
-81 0
82 0
83 0
84 0
-85 0
-86 0
87 0
88 0
-89 0
-91 0
-92 0
-94 0
-95 0
-96 0
-97 0
98 0
99 0
100 0
-102 0
103 0
105 0
-106 0
-107 0
109 0
110 0
-112 0
-113 0
116 0
-117 0
-118 0
119 0
120 0
-121 0
123 0
-124 0
125 0
126 0
127 0
128 0
-129 0
130 0
131 0
-133 0
-135 0
136 0
-137 0
138 0
-139 0
140 0
141 0
-142 0
-143 0
-145 0
148 0
149 0
150 0
151 0
-152 0
153 0
154 0
155 0
-156 0
157 0
-158 0
159 0
-160 0
161 0
-162 0
164 0
165 0
-166 0
-167 0
-169 0
171 0
-172 0
-174 0
-175 0
-176 0
177 0
-178 0
179 0
-180 0
181 0
182 0
183 0
-184 0
185 0
-186 0
188 0
-189 0
190 0
-191 0
192 0
-193 0
194 0
195 0
197 0
198 0
199 0
-201 0
-203 0
205 0
206 0
-207 0
-208 0
-209 0
210 0
211 0
-212 0
214 0
215 0
216 0
217 0
-218 0
-219 0
220 0
221 0
222 0
-223 0
-224 0
-225 0
-226 0
-227 0
228 0
229 0
230 0
-231 0
232 0
-233 0
-236 0
-238 0
239 0
240 0
241 0
-242 0
-243 0
-244 0
-245 0
246 0
248 0
-249 0
250 0
-363 364 0
-358 360 0
-344 345 0
-340 341 0
-338 339 0
-336 338 0
-335 336 0
-330 331 0
-334 335 0
-322 330 0
-8 298 0
65 272 280 0
235 320 0
-290 291 0
-318 319 0
-235 317 0
-316 317 0
8 300 0
75 313 0
132 315 318 0
-312 316 0
-132 312 318 0
-307 308 0
144 307 0
-354 355 0
-304 305 0
-270 271 0
-355 357 0
-271 276 0
-295 297 0
-263 264 0
-352 354 0
-351 352 0
-315 316 0
-46 361 0
-349 351 0
-299 300 0
-266 276 0
-348 349 0
-297 298 0
-262 266 0
-319 320 0
-347 348 0
-264 265 0
-202 258 0
66 296 0
-293 294 0
64 289 0
-288 290 0
213 268 282 0
-237 309 0
-286 287 0
-114 302 0
-314 315 0
-284 285 0
134 265 0
-259 260 0
115 263 0
-274 275 286 0
-213 267 268 0
-258 259 0
163 260 0
-272 276 0
-276 277 0
-289 290 0
-122 273 278 0
-360 362 0
-281 290 0
-313 314 0
-257 259 264 269 279 294 304 308 314 0
-196 267 0
-275 276 0
-303 304 0
-267 271 0
-308 309 0
237 310 0
-287 288 0
-268 269 286 0
-163 256 0
-65 278 0
111 303 0
-251 252 253 254 255 342 346 350 353 356 359 0
-64 272 0
-357 358 0
-362 363 0
-282 284 0
187 272 287 0
-341 343 0
-343 344 0
122 273 0
-273 275 279 0
-134 262 289 0
-278 281 0
32 274 282 0
114 305 0
-32 274 0
-68 283 0
-285 288 0
196 270 289 0
-75 312 313 319 0
-332 334 0
-345 347 0
-294 295 0
-265 266 0
-187 285 0
212 337 0
-331 332 0
-339 340 0
-269 270 0
-279 280 0
-280 281 0
-66 295 299 0
-82 333 0
-283 284 0
-230 322 0
